dates = {'2022-03-01','2022-03-02','2022-03-03','2022-03-04','2022-03-05','2022-03-06','2022-03-07'};

daysOfWeek = [Tuesday,Wednesday,Thursday,Friday,Saturday,Sunday,Monday];

% For this week, how many people will be here.
numPeople = [139,136,125,125,125,125,117];

% Physical workers need 50 to 100 % more nutrients per day.
numPhysicalWorkers = [42.0,42.0,39.0,33.5,33.5,33.5,33.5];

% Males need +25% more nutrients per day.
numMen = [112,112,109,100,100,100,100];

% Num people who do not eat categories. contains = {none, meat, milk, gluten, egg, nut, seed, sugars}
numRefusals = [| 0,1,8,0,3,0,0,2 | 0,0,5,4,1,7,0,0 | 0,4,13,8,0,3,0,6 | 0,4,13,8,0,3,0,6 | 0,4,13,8,0,3,0,6 | 0,4,13,8,0,3,0,6 | 0,0,6,0,0,3,1,0 |];

